[TITLE]
LoopBiotek Zone stub — minimal EPANET network
; Reservoir -> Pipe -> Junction (demand) + branch Junction
; Open with EPANET GUI / CLI, QEPANET, or QGISRed. WNTR installed in .venv.

[JUNCTIONS]
;ID               Elev         Demand       Pattern
J1                100          10           ;
J2                98           5            ;

[RESERVOIRS]
;ID               Head         Pattern
R1                120          ;

[TANKS]
; none

[PIPES]
;ID               Node1            Node2            Length     Diameter   Roughness  MinorLoss  Status
P1                R1               J1               50         150        100        0          Open
P2                J1               J2               40         100        100        0          Open

[PUMPS]
; none

[VALVES]
; none

[DEMANDS]
;ID  Demand  Pattern  Category

[STATUS]
; none

[PATTERNS]
; none

[CURVES]
; none

[CONTROLS]
; none

[RULES]
; none

[ENERGY]
; Global Efficiency  75
; Global Pattern
; Demand Charge      0.0

[EMITTERS]
; none

[QUALITY]
; none

[SOURCES]
; none

[REACTIONS]
Order Bulk            1
Order Tank            1
Order Wall            1
Global Bulk           0
Global Wall           0
Limiting Potential    0
Roughness Correlation 0

[MIXING]
; none

[TIMES]
Duration            24:00
Hydraulic Timestep  1:00
Quality Timestep    0:05
Pattern Timestep    1:00
Pattern Start       0:00
Report Timestep     1:00
Report Start        0:00
Start ClockTime     12:00 AM
Statistic           NONE

[REPORT]
Status              Yes
Summary             No
Page                0

[OPTIONS]
Units               LPS
Headloss            H-W
Specific Gravity    1.0
Viscosity           1.0
Trials              40
Accuracy            0.001
CHECKFREQ           2
MAXCHECK            10
DAMPLIMIT           0
Unbalanced          Continue 10
Pattern             1
Demand Multiplier   1.0
Emitter Exponent    0.5
Quality             None mg/L
Diffusivity         1.0
Tolerance           0.01

[COORDINATES]
;Node             X-Coord          Y-Coord
R1                0                0
J1                50               0
J2                90               0

[VERTICES]
; none

[LABELS]
; none

[BACKDROP]
; none

[END]
